
Gurobi 13.0.1 (mac64[arm], Python) logging started Fri Apr 17 13:07:06 2026

Set parameter LogToConsole to value 0
Set parameter Username
Set parameter LicenseID to value 2799845
Set parameter LogFile to value "/Users/monitsharma/SMU-Quantum-Repos/quantum-optimization-benchmarks/classical_solutions/results/qap/logs/chr12c_solver.log"
Academic license - for non-commercial use only - expires 2027-03-30
Set parameter TimeLimit to value 100
Set parameter Threads to value 0
Set parameter MIPGap to value 0
Set parameter MIPFocus to value 0
Set parameter DisplayInterval to value 5
Set parameter NonConvex to value 2
Gurobi Optimizer version 13.0.1 build v13.0.1rc0 (mac64[arm] - Darwin 25.4.0 25E253)

CPU model: Apple M3 Pro
Thread count: 12 physical cores, 12 logical processors, using up to 12 threads

Non-default parameters:
TimeLimit  100
MIPGap  0
LogToConsole  0
NonConvex  2

Optimize a model with 24 rows, 144 columns and 288 nonzeros (Min)
Model fingerprint: 0xcc992bfe
Model has 0 linear objective coefficients
Model has 1430 quadratic objective terms
Variable types: 0 continuous, 144 integer (144 binary)
Coefficient statistics:
  Matrix range     [1e+00, 1e+00]
  Objective range  [0e+00, 0e+00]
  QObjective range [2e+01, 4e+04]
  Bounds range     [1e+00, 1e+00]
  RHS range        [1e+00, 1e+00]

Found heuristic solution: objective 43938.000000
Presolve time: 0.01s
Presolved: 1454 rows, 1574 columns, 4578 nonzeros
Variable types: 0 continuous, 1574 integer (1574 binary)

Root relaxation: objective 0.000000e+00, 92 iterations, 0.00 seconds (0.00 work units)

    Nodes    |    Current Node    |     Objective Bounds      |     Work
 Expl Unexpl |  Obj  Depth IntInf | Incumbent    BestBd   Gap | It/Node Time

     0     0    0.00000    0   24 43938.0000    0.00000   100%     -    0s
H    0     0                    38644.000000    0.00000   100%     -    0s
H    0     0                    34550.000000    0.00000   100%     -    0s
H    0     0                    30028.000000    0.00000   100%     -    0s
H    0     0                    27228.000000    0.00000   100%     -    0s
     0     0    0.00000    0   24 27228.0000    0.00000   100%     -    0s
H    0     0                    26132.000000    0.00000   100%     -    0s
     0     0    0.00000    0   24 26132.0000    0.00000   100%     -    0s
     0     0    0.00000    0   24 26132.0000    0.00000   100%     -    0s
H    0     0                    24520.000000    0.00000   100%     -    0s
     0     0    0.00000    0   31 24520.0000    0.00000   100%     -    0s
     0     0    0.00000    0   31 24520.0000    0.00000   100%     -    0s
     0     0    0.00000    0   31 24520.0000    0.00000   100%     -    0s
     0     0    0.00000    0   31 24520.0000    0.00000   100%     -    0s
     0     2  100.00000    0   31 24520.0000  100.00000   100%     -    0s
H   17    28                    24490.000000  100.00000   100%  93.6    0s
H   20    28                    18804.000000  100.00000  99.5%  88.7    0s
H   96   145                    18530.000000  100.00000  99.5%  58.7    0s
H  101   145                    18508.000000  100.00000  99.5%  57.5    0s
H  112   145                    18432.000000  100.00000  99.5%  55.5    0s
H  117   145                    18116.000000  100.00000  99.4%  55.1    0s
H  119   145                    16348.000000  100.00000  99.4%  54.5    0s
H  213   251                    16342.000000  100.00000  99.4%  48.0    0s
H  223   251                    15852.000000  100.00000  99.4%  47.0    0s
H  317   342                    15554.000000  100.00000  99.4%  41.2    0s
H  320   342                    14232.000000  100.00000  99.3%  41.4    0s
H  342   342                    12858.000000  100.00000  99.2%  40.4    0s
H  456   438                    11808.000000  100.00000  99.2%  37.9    0s
H 1049   705                    11806.000000 1603.60000  86.4%  30.0    0s
H 1161   705                    11414.000000 1603.60000  86.0%  29.3    0s
H 5255  1597                    11186.000000 5646.53333  49.5%  26.7    1s
* 6280  1517              50    11156.000000 6225.00000  44.2%  26.7    1s

Cutting planes:
  Cover: 3
  Dual implied bound: 2
  Inf proof: 4
  Zero half: 2
  RLT: 129
  Relax-and-lift: 1

Explored 10614 nodes (255190 simplex iterations) in 2.00 seconds (3.75 work units)
Thread count was 12 (of 12 available processors)

Solution count 10: 11156 11186 11414 ... 16342

Optimal solution found (tolerance 0.00e+00)
Best objective 1.115600000000e+04, best bound 1.115600000000e+04, gap 0.0000%
